100
26 38
3 6
6 17
5 75
22 5
25 82
12 6
12 84
25 88
14 53
9 30
10 17
15 36
20 67
12 39
9 80
6 18
15 92
8 34
19 82
6 2
20 34
20 98
17 12
5 18
18 1
18 16
12 90
9 33
14 85
17 81
22 5
28 55
19 87
20 18
12 29
15 86
7 32
4 38
6 24
17 61
7 56
7 47
22 81
6 56
0 8
13 83
8 42
21 63
1 80
21 3
0 5
7 76
26 79
23 33
26 22
19 32
29 23
7 78
26 63
11 23
29 76
10 84
28 49
19 52
5 81
27 90
9 97
26 76
22 85
0 31
5 60
6 91
29 94
17 93
26 55
14 80
7 27
17 54
18 17
18 58
1 14
13 37
26 72
29 40
13 80
20 69
2 39
15 76
9 81
19 95
15 38
15 25
11 92
19 94
23 90
16 60
29 6
18 19
1 67
